810196
26,94,40,29,79,51,78,25,73,95,47,57,33,9,20,21,96,30,77,41,6,75,69,18,56,10,49,93,62,31,60,32,70,1,48,37,74,13,63,68,80,99,36,72,55,44,91,53,8,89,85,3,5,64,27,2,42,97,35,67,61,58,82,16,15,83,88,50,38,76,87,45,86,81,4,66,7,14,39,92,84,22,43,24,52,65,54,98,23,11,28,46,34,71,90,59,19,12,17